data;
param Title := EuglenaGracilis;
param start := 179_0_F;
set V :=
129_0_F
130_0_R
164_0_R
1_0_R
3_0_R
179_0_F
133_0_R
36_0_R
38_0_R
88_0_R
87_0_F
152_0_R
9_0_R
7_0_F
102_0_F
28_0_F
26_0_F
139_0_F
103_0_F
104_0_R
135_0_R
156_0_R
52_0_R
51_0_F
182_0_F
23_0_R
24_0_F
132_0_F
80_0_F
79_0_F
93_0_F
73_0_F
71_0_F
82_0_R
173_0_F
150_0_F
122_0_F
172_0_R
138_0_R
137_0_F
143_0_R
75_0_F
74_0_R
146_0_F
56_0_F
55_0_R
68_0_R
66_0_F
39_0_F
41_0_F
125_0_F
127_0_R
128_0_F
130_1_R
165_0_R
168_0_R
162_0_R
163_0_R
6_0_F
4_0_F
62_0_R
61_0_F
104_1_R
135_1_R
156_1_R
52_1_R
51_1_F
182_1_F
23_1_R
24_1_F
132_1_F
80_1_F
79_1_F
93_1_F
73_1_F
71_1_F
82_1_R
173_1_F
150_1_F
122_1_F
172_1_R
138_1_R
137_1_F
143_1_R
75_1_F
74_1_R
146_1_F
56_1_F
55_1_R
68_1_R
66_1_F
39_1_F
41_1_F
125_1_F
127_1_R
128_1_F
130_2_R
165_1_R
168_1_R
162_1_R
163_1_R
6_1_F
4_1_F
62_1_R
61_1_F
104_2_R
135_2_R
156_2_R
52_2_R
51_2_F
182_2_F
23_2_R
24_2_F
132_2_F
80_2_F
79_2_F
93_2_F
73_2_F
71_2_F
82_2_R
173_2_F
150_2_F
122_2_F
172_2_R
138_2_R
137_2_F
143_2_R
75_2_F
74_2_R
146_2_F
56_2_F
55_2_R
68_2_R
66_2_F
39_2_F
41_2_F
125_2_F
127_2_R
128_2_F
130_3_R
165_2_R
168_2_R
161_0_R
163_2_R
113_0_F
69_0_F
62_2_R
60_0_F
110_0_R
73_3_F
71_3_F
82_3_R
173_3_F
121_0_F
175_0_R
138_3_R
137_3_F
143_3_R
75_3_F
74_3_R
146_3_F
57_0_F
55_3_R
68_3_R
66_3_F
39_3_F
41_3_F
125_3_F
127_3_R
128_3_F
130_4_R
13_0_F
12_0_F
100_0_R
147_0_R
101_0_F
100_1_R
147_1_R
;
set O :=
129_0_F	130_0_R
130_0_R	164_0_R
164_0_R	1_0_R
1_0_R	3_0_R
3_0_R	179_0_F
179_0_F	133_0_R
133_0_R	36_0_R
36_0_R	38_0_R
38_0_R	88_0_R
88_0_R	87_0_F
87_0_F	152_0_R
152_0_R	9_0_R
9_0_R	7_0_F
7_0_F	102_0_F
102_0_F	28_0_F
28_0_F	26_0_F
26_0_F	139_0_F
139_0_F	103_0_F
103_0_F	104_0_R
104_0_R	135_0_R
135_0_R	156_0_R
156_0_R	52_0_R
52_0_R	51_0_F
51_0_F	182_0_F
182_0_F	23_0_R
23_0_R	24_0_F
24_0_F	132_0_F
132_0_F	80_0_F
80_0_F	79_0_F
79_0_F	93_0_F
93_0_F	73_0_F
73_0_F	71_0_F
71_0_F	82_0_R
82_0_R	173_0_F
173_0_F	150_0_F
150_0_F	122_0_F
122_0_F	172_0_R
172_0_R	138_0_R
138_0_R	137_0_F
137_0_F	143_0_R
143_0_R	75_0_F
75_0_F	74_0_R
74_0_R	146_0_F
146_0_F	56_0_F
56_0_F	55_0_R
55_0_R	68_0_R
68_0_R	66_0_F
66_0_F	39_0_F
39_0_F	41_0_F
41_0_F	125_0_F
125_0_F	127_0_R
127_0_R	128_0_F
128_0_F	130_1_R
130_1_R	165_0_R
165_0_R	168_0_R
168_0_R	162_0_R
162_0_R	163_0_R
163_0_R	6_0_F
6_0_F	4_0_F
4_0_F	62_0_R
62_0_R	61_0_F
61_0_F	104_1_R
104_1_R	135_1_R
135_1_R	156_1_R
156_1_R	52_1_R
52_1_R	51_1_F
51_1_F	182_1_F
182_1_F	23_1_R
23_1_R	24_1_F
24_1_F	132_1_F
132_1_F	80_1_F
80_1_F	79_1_F
79_1_F	93_1_F
93_1_F	73_1_F
73_1_F	71_1_F
71_1_F	82_1_R
82_1_R	173_1_F
173_1_F	150_1_F
150_1_F	122_1_F
122_1_F	172_1_R
172_1_R	138_1_R
138_1_R	137_1_F
137_1_F	143_1_R
143_1_R	75_1_F
75_1_F	74_1_R
74_1_R	146_1_F
146_1_F	56_1_F
56_1_F	55_1_R
55_1_R	68_1_R
68_1_R	66_1_F
66_1_F	39_1_F
39_1_F	41_1_F
41_1_F	125_1_F
125_1_F	127_1_R
127_1_R	128_1_F
128_1_F	130_2_R
130_2_R	165_1_R
165_1_R	168_1_R
168_1_R	162_1_R
162_1_R	163_1_R
163_1_R	6_1_F
6_1_F	4_1_F
4_1_F	62_1_R
62_1_R	61_1_F
61_1_F	104_2_R
104_2_R	135_2_R
135_2_R	156_2_R
156_2_R	52_2_R
52_2_R	51_2_F
51_2_F	182_2_F
182_2_F	23_2_R
23_2_R	24_2_F
24_2_F	132_2_F
132_2_F	80_2_F
80_2_F	79_2_F
79_2_F	93_2_F
93_2_F	73_2_F
73_2_F	71_2_F
71_2_F	82_2_R
82_2_R	173_2_F
173_2_F	150_2_F
150_2_F	122_2_F
122_2_F	172_2_R
172_2_R	138_2_R
138_2_R	137_2_F
137_2_F	143_2_R
143_2_R	75_2_F
75_2_F	74_2_R
74_2_R	146_2_F
146_2_F	56_2_F
56_2_F	55_2_R
55_2_R	68_2_R
68_2_R	66_2_F
66_2_F	39_2_F
39_2_F	41_2_F
41_2_F	125_2_F
125_2_F	127_2_R
127_2_R	128_2_F
128_2_F	130_3_R
130_3_R	165_2_R
165_2_R	168_2_R
168_2_R	161_0_R
161_0_R	163_2_R
163_2_R	113_0_F
113_0_F	69_0_F
69_0_F	62_2_R
62_2_R	60_0_F
60_0_F	110_0_R
110_0_R	73_3_F
73_3_F	71_3_F
71_3_F	82_3_R
82_3_R	173_3_F
173_3_F	121_0_F
121_0_F	175_0_R
175_0_R	138_3_R
138_3_R	137_3_F
137_3_F	143_3_R
143_3_R	75_3_F
75_3_F	74_3_R
74_3_R	146_3_F
146_3_F	57_0_F
57_0_F	55_3_R
55_3_R	68_3_R
68_3_R	66_3_F
66_3_F	39_3_F
39_3_F	41_3_F
41_3_F	125_3_F
125_3_F	127_3_R
127_3_R	128_3_F
128_3_F	130_4_R
130_4_R	13_0_F
13_0_F	12_0_F
12_0_F	100_0_R
100_0_R	147_0_R
147_0_R	101_0_F
101_0_F	100_1_R
100_1_R	147_1_R
147_1_R	129_0_F
;
set L :=
139_0_F	103_0_F
102_0_F	28_0_F
102_0_F	103_0_F
102_0_F	139_0_F
102_0_F	26_0_F
133_0_R	36_0_R
129_0_F	1_0_R
129_0_F	164_0_R
152_0_R	9_0_R
156_1_R	60_0_F
100_1_R	164_0_R
3_0_R	179_0_F
156_0_R	60_0_F
23_0_R	156_0_R
23_0_R	156_2_R
23_0_R	60_0_F
23_0_R	156_1_R
12_0_F	164_0_R
12_0_F	129_0_F
87_0_F	9_0_R
87_0_F	152_0_R
1_0_R	3_0_R
36_0_R	38_0_R
36_0_R	87_0_F
36_0_R	88_0_R
156_2_R	60_0_F
28_0_F	103_0_F
60_0_F	12_0_F
60_0_F	100_0_R
60_0_F	100_1_R
23_2_R	156_0_R
23_2_R	156_2_R
23_2_R	60_0_F
23_2_R	156_1_R
9_0_R	7_0_F
7_0_F	102_0_F
164_0_R	1_0_R
164_0_R	3_0_R
88_0_R	152_0_R
88_0_R	87_0_F
100_0_R	164_0_R
23_1_R	156_0_R
23_1_R	156_2_R
23_1_R	60_0_F
23_1_R	156_1_R
103_0_F	156_0_R
103_0_F	156_2_R
103_0_F	23_2_R
103_0_F	23_1_R
103_0_F	156_1_R
103_0_F	23_0_R
26_0_F	103_0_F
38_0_R	87_0_F
179_0_F	133_0_R
;
param l :=
129_0_F	130_0_R	-100.0
130_0_R	164_0_R	-100.0
164_0_R	1_0_R	-100.0
1_0_R	3_0_R	-100.0
3_0_R	179_0_F	-100.0
179_0_F	133_0_R	-100.0
133_0_R	36_0_R	-100.0
36_0_R	38_0_R	-100.0
38_0_R	88_0_R	-100.0
88_0_R	87_0_F	-100.0
87_0_F	152_0_R	-100.0
152_0_R	9_0_R	-100.0
9_0_R	7_0_F	-100.0
7_0_F	102_0_F	-100.0
102_0_F	28_0_F	-100.0
28_0_F	26_0_F	-100.0
26_0_F	139_0_F	-100.0
139_0_F	103_0_F	-100.0
103_0_F	104_0_R	-100.0
104_0_R	135_0_R	-100.0
135_0_R	156_0_R	-100.0
156_0_R	52_0_R	-100.0
52_0_R	51_0_F	-100.0
51_0_F	182_0_F	-100.0
182_0_F	23_0_R	-100.0
23_0_R	24_0_F	-100.0
24_0_F	132_0_F	-100.0
132_0_F	80_0_F	-100.0
80_0_F	79_0_F	-100.0
79_0_F	93_0_F	-100.0
93_0_F	73_0_F	-100.0
73_0_F	71_0_F	-100.0
71_0_F	82_0_R	-100.0
82_0_R	173_0_F	-100.0
173_0_F	150_0_F	-100.0
150_0_F	122_0_F	-100.0
122_0_F	172_0_R	-100.0
172_0_R	138_0_R	-100.0
138_0_R	137_0_F	-100.0
137_0_F	143_0_R	-100.0
143_0_R	75_0_F	-100.0
75_0_F	74_0_R	-100.0
74_0_R	146_0_F	-100.0
146_0_F	56_0_F	-100.0
56_0_F	55_0_R	-100.0
55_0_R	68_0_R	-100.0
68_0_R	66_0_F	-100.0
66_0_F	39_0_F	-100.0
39_0_F	41_0_F	-100.0
41_0_F	125_0_F	-100.0
125_0_F	127_0_R	-100.0
127_0_R	128_0_F	-100.0
128_0_F	130_1_R	-100.0
130_1_R	165_0_R	-100.0
165_0_R	168_0_R	-100.0
168_0_R	162_0_R	-100.0
162_0_R	163_0_R	-100.0
163_0_R	6_0_F	-100.0
6_0_F	4_0_F	-100.0
4_0_F	62_0_R	-100.0
62_0_R	61_0_F	-100.0
61_0_F	104_1_R	-100.0
104_1_R	135_1_R	-100.0
135_1_R	156_1_R	-100.0
156_1_R	52_1_R	-100.0
52_1_R	51_1_F	-100.0
51_1_F	182_1_F	-100.0
182_1_F	23_1_R	-100.0
23_1_R	24_1_F	-100.0
24_1_F	132_1_F	-100.0
132_1_F	80_1_F	-100.0
80_1_F	79_1_F	-100.0
79_1_F	93_1_F	-100.0
93_1_F	73_1_F	-100.0
73_1_F	71_1_F	-100.0
71_1_F	82_1_R	-100.0
82_1_R	173_1_F	-100.0
173_1_F	150_1_F	-100.0
150_1_F	122_1_F	-100.0
122_1_F	172_1_R	-100.0
172_1_R	138_1_R	-100.0
138_1_R	137_1_F	-100.0
137_1_F	143_1_R	-100.0
143_1_R	75_1_F	-100.0
75_1_F	74_1_R	-100.0
74_1_R	146_1_F	-100.0
146_1_F	56_1_F	-100.0
56_1_F	55_1_R	-100.0
55_1_R	68_1_R	-100.0
68_1_R	66_1_F	-100.0
66_1_F	39_1_F	-100.0
39_1_F	41_1_F	-100.0
41_1_F	125_1_F	-100.0
125_1_F	127_1_R	-100.0
127_1_R	128_1_F	-100.0
128_1_F	130_2_R	-100.0
130_2_R	165_1_R	-100.0
165_1_R	168_1_R	-100.0
168_1_R	162_1_R	-100.0
162_1_R	163_1_R	-100.0
163_1_R	6_1_F	-100.0
6_1_F	4_1_F	-100.0
4_1_F	62_1_R	-100.0
62_1_R	61_1_F	-100.0
61_1_F	104_2_R	-100.0
104_2_R	135_2_R	-100.0
135_2_R	156_2_R	-100.0
156_2_R	52_2_R	-100.0
52_2_R	51_2_F	-100.0
51_2_F	182_2_F	-100.0
182_2_F	23_2_R	-100.0
23_2_R	24_2_F	-100.0
24_2_F	132_2_F	-100.0
132_2_F	80_2_F	-100.0
80_2_F	79_2_F	-100.0
79_2_F	93_2_F	-100.0
93_2_F	73_2_F	-100.0
73_2_F	71_2_F	-100.0
71_2_F	82_2_R	-100.0
82_2_R	173_2_F	-100.0
173_2_F	150_2_F	-100.0
150_2_F	122_2_F	-100.0
122_2_F	172_2_R	-100.0
172_2_R	138_2_R	-100.0
138_2_R	137_2_F	-100.0
137_2_F	143_2_R	-100.0
143_2_R	75_2_F	-100.0
75_2_F	74_2_R	-100.0
74_2_R	146_2_F	-100.0
146_2_F	56_2_F	-100.0
56_2_F	55_2_R	-100.0
55_2_R	68_2_R	-100.0
68_2_R	66_2_F	-100.0
66_2_F	39_2_F	-100.0
39_2_F	41_2_F	-100.0
41_2_F	125_2_F	-100.0
125_2_F	127_2_R	-100.0
127_2_R	128_2_F	-100.0
128_2_F	130_3_R	-100.0
130_3_R	165_2_R	-100.0
165_2_R	168_2_R	-100.0
168_2_R	161_0_R	-100.0
161_0_R	163_2_R	-100.0
163_2_R	113_0_F	-100.0
113_0_F	69_0_F	-100.0
69_0_F	62_2_R	-100.0
62_2_R	60_0_F	-100.0
60_0_F	110_0_R	-100.0
110_0_R	73_3_F	-100.0
73_3_F	71_3_F	-100.0
71_3_F	82_3_R	-100.0
82_3_R	173_3_F	-100.0
173_3_F	121_0_F	-100.0
121_0_F	175_0_R	-100.0
175_0_R	138_3_R	-100.0
138_3_R	137_3_F	-100.0
137_3_F	143_3_R	-100.0
143_3_R	75_3_F	-100.0
75_3_F	74_3_R	-100.0
74_3_R	146_3_F	-100.0
146_3_F	57_0_F	-100.0
57_0_F	55_3_R	-100.0
55_3_R	68_3_R	-100.0
68_3_R	66_3_F	-100.0
66_3_F	39_3_F	-100.0
39_3_F	41_3_F	-100.0
41_3_F	125_3_F	-100.0
125_3_F	127_3_R	-100.0
127_3_R	128_3_F	-100.0
128_3_F	130_4_R	-100.0
130_4_R	13_0_F	-100.0
13_0_F	12_0_F	-100.0
12_0_F	100_0_R	-100.0
100_0_R	147_0_R	-100.0
147_0_R	101_0_F	-100.0
101_0_F	100_1_R	-100.0
100_1_R	147_1_R	-100.0
147_1_R	129_0_F	-100.0
;
param w :=
129_0_F	1720.0
130_0_R	103.0
164_0_R	3675.0
1_0_R	2222.0
3_0_R	15450.0
179_0_F	17259.0
133_0_R	7391.0
36_0_R	9182.0
38_0_R	682.0
88_0_R	2813.0
87_0_F	3107.0
152_0_R	2336.0
9_0_R	13720.0
7_0_F	14680.0
102_0_F	10443.0
28_0_F	714.0
26_0_F	361.0
139_0_F	2560.0
103_0_F	10726.0
104_0_R	261.0
135_0_R	161.0
156_0_R	1709.0
52_0_R	159.0
51_0_F	149.0
182_0_F	497.0
23_0_R	553.0
24_0_F	104.0
132_0_F	114.0
80_0_F	133.0
79_0_F	431.0
93_0_F	230.0
73_0_F	114.0
71_0_F	201.0
82_0_R	180.0
173_0_F	166.0
150_0_F	193.0
122_0_F	167.0
172_0_R	196.0
138_0_R	201.0
137_0_F	200.0
143_0_R	150.0
75_0_F	260.0
74_0_R	119.0
146_0_F	113.0
56_0_F	293.0
55_0_R	159.0
68_0_R	125.0
66_0_F	116.0
39_0_F	201.0
41_0_F	154.0
125_0_F	104.0
127_0_R	201.0
128_0_F	107.0
130_1_R	103.0
165_0_R	355.0
168_0_R	237.0
162_0_R	378.0
163_0_R	125.0
6_0_F	277.0
4_0_F	152.0
62_0_R	201.0
61_0_F	170.0
104_1_R	261.0
135_1_R	161.0
156_1_R	1709.0
52_1_R	159.0
51_1_F	149.0
182_1_F	497.0
23_1_R	553.0
24_1_F	104.0
132_1_F	114.0
80_1_F	133.0
79_1_F	431.0
93_1_F	230.0
73_1_F	114.0
71_1_F	201.0
82_1_R	180.0
173_1_F	166.0
150_1_F	193.0
122_1_F	167.0
172_1_R	196.0
138_1_R	201.0
137_1_F	200.0
143_1_R	150.0
75_1_F	260.0
74_1_R	119.0
146_1_F	113.0
56_1_F	293.0
55_1_R	159.0
68_1_R	125.0
66_1_F	116.0
39_1_F	201.0
41_1_F	154.0
125_1_F	104.0
127_1_R	201.0
128_1_F	107.0
130_2_R	103.0
165_1_R	355.0
168_1_R	237.0
162_1_R	378.0
163_1_R	125.0
6_1_F	277.0
4_1_F	152.0
62_1_R	201.0
61_1_F	170.0
104_2_R	261.0
135_2_R	161.0
156_2_R	1709.0
52_2_R	159.0
51_2_F	149.0
182_2_F	497.0
23_2_R	553.0
24_2_F	104.0
132_2_F	114.0
80_2_F	133.0
79_2_F	431.0
93_2_F	230.0
73_2_F	114.0
71_2_F	201.0
82_2_R	180.0
173_2_F	166.0
150_2_F	193.0
122_2_F	167.0
172_2_R	196.0
138_2_R	201.0
137_2_F	200.0
143_2_R	150.0
75_2_F	260.0
74_2_R	119.0
146_2_F	113.0
56_2_F	293.0
55_2_R	159.0
68_2_R	125.0
66_2_F	116.0
39_2_F	201.0
41_2_F	154.0
125_2_F	104.0
127_2_R	201.0
128_2_F	107.0
130_3_R	103.0
165_2_R	355.0
168_2_R	237.0
161_0_R	370.0
163_2_R	125.0
113_0_F	246.0
69_0_F	189.0
62_2_R	201.0
60_0_F	2039.0
110_0_R	327.0
73_3_F	114.0
71_3_F	201.0
82_3_R	180.0
173_3_F	166.0
121_0_F	251.0
175_0_R	199.0
138_3_R	201.0
137_3_F	200.0
143_3_R	150.0
75_3_F	260.0
74_3_R	119.0
146_3_F	113.0
57_0_F	293.0
55_3_R	159.0
68_3_R	125.0
66_3_F	116.0
39_3_F	201.0
41_3_F	154.0
125_3_F	104.0
127_3_R	201.0
128_3_F	107.0
130_4_R	103.0
13_0_F	795.0
12_0_F	1989.0
100_0_R	598.0
147_0_R	307.0
101_0_F	668.0
100_1_R	598.0
147_1_R	307.0
;
param b_inf :=
139_0_F	103_0_F	0.0
102_0_F	28_0_F	0.0
102_0_F	103_0_F	3128.0
102_0_F	139_0_F	613.0
102_0_F	26_0_F	384.0
133_0_R	36_0_R	0.0
129_0_F	1_0_R	3357.0
129_0_F	164_0_R	0.0
152_0_R	9_0_R	0.0
156_1_R	60_0_F	3818.0
100_1_R	164_0_R	1593.0
3_0_R	179_0_F	0.0
156_0_R	60_0_F	3818.0
23_0_R	156_0_R	3206.0
23_0_R	156_2_R	3206.0
23_0_R	60_0_F	2852.0
23_0_R	156_1_R	3206.0
12_0_F	164_0_R	3326.0
12_0_F	129_0_F	1764.0
87_0_F	9_0_R	1981.0
87_0_F	152_0_R	0.0
1_0_R	3_0_R	0.0
36_0_R	38_0_R	0.0
36_0_R	87_0_F	3092.0
36_0_R	88_0_R	329.0
156_2_R	60_0_F	3818.0
28_0_F	103_0_F	2496.0
60_0_F	12_0_F	2183.0
60_0_F	100_0_R	4087.0
60_0_F	100_1_R	4087.0
23_2_R	156_0_R	3206.0
23_2_R	156_2_R	3206.0
23_2_R	60_0_F	2852.0
23_2_R	156_1_R	3206.0
9_0_R	7_0_F	0.0
7_0_F	102_0_F	0.0
164_0_R	1_0_R	0.0
164_0_R	3_0_R	1884.0
88_0_R	152_0_R	2744.0
88_0_R	87_0_F	0.0
100_0_R	164_0_R	1593.0
23_1_R	156_0_R	3206.0
23_1_R	156_2_R	3206.0
23_1_R	60_0_F	2852.0
23_1_R	156_1_R	3206.0
103_0_F	156_0_R	18.0
103_0_F	156_2_R	18.0
103_0_F	23_2_R	2226.0
103_0_F	23_1_R	2226.0
103_0_F	156_1_R	18.0
103_0_F	23_0_R	2226.0
26_0_F	103_0_F	2279.0
38_0_R	87_0_F	2481.0
179_0_F	133_0_R	0.0
;
param b_sup :=
139_0_F	103_0_F	27.0
102_0_F	28_0_F	0.0
102_0_F	103_0_F	3370.0
102_0_F	139_0_F	950.0
102_0_F	26_0_F	599.0
133_0_R	36_0_R	44.0
129_0_F	1_0_R	3578.0
129_0_F	164_0_R	46.0
152_0_R	9_0_R	36.0
156_1_R	60_0_F	4042.0
100_1_R	164_0_R	3133.0
3_0_R	179_0_F	63.0
156_0_R	60_0_F	4042.0
23_0_R	156_0_R	3359.0
23_0_R	156_2_R	3359.0
23_0_R	60_0_F	3045.0
23_0_R	156_1_R	3359.0
12_0_F	164_0_R	3644.0
12_0_F	129_0_F	2019.0
87_0_F	9_0_R	2282.0
87_0_F	152_0_R	0.0
1_0_R	3_0_R	63.0
36_0_R	38_0_R	0.0
36_0_R	87_0_F	3314.0
36_0_R	88_0_R	637.0
156_2_R	60_0_F	4042.0
28_0_F	103_0_F	2745.0
60_0_F	12_0_F	2512.0
60_0_F	100_0_R	4281.0
60_0_F	100_1_R	4281.0
23_2_R	156_0_R	3359.0
23_2_R	156_2_R	3359.0
23_2_R	60_0_F	3045.0
23_2_R	156_1_R	3359.0
9_0_R	7_0_F	442.0
7_0_F	102_0_F	35.0
164_0_R	1_0_R	0.0
164_0_R	3_0_R	2180.0
88_0_R	152_0_R	3052.0
88_0_R	87_0_F	0.0
100_0_R	164_0_R	3133.0
23_1_R	156_0_R	3359.0
23_1_R	156_2_R	3359.0
23_1_R	60_0_F	3045.0
23_1_R	156_1_R	3359.0
103_0_F	156_0_R	234.0
103_0_F	156_2_R	234.0
103_0_F	23_2_R	2344.0
103_0_F	23_1_R	2344.0
103_0_F	156_1_R	234.0
103_0_F	23_0_R	2344.0
26_0_F	103_0_F	2431.0
38_0_R	87_0_F	2753.0
179_0_F	133_0_R	74.0
;
